Dataset1.dzn
P = { Alice, Bob, Charlie, David, Eve };
hour = [2,3,1,2,4];
free = [| true, false, false, true, false, true, false, false, false, true, false, true,
         false, false, true, false, true, false, false, false, true, false, true, true,
        | true, false, false, false, false, false, false, false, true, true, false, true,
         true, false, false, true, false, true, true, false, true, true, false, true,
        | false, false, true, true, false, true, false, true, false, true, false, true,
         true, false, false, true, false, true, true, false, false, true, false, true,
        | false, false, true, true, false, true, false, true, false, true, false, true,
         false, false, false, false, false, false, false, false, false, true, false, true,	
        | true, true, true, true, false, true, true, false, false, true, false, true,
         true, false, false, false, true, false, false, true, false, false, false, true |];